# Solution for model GasLib-40
# Objective value = 1.2522027255810876e+01
loadshed[innode_1] 0
loadshed[innode_2] 0
loadshed[innode_3] 0
loadshed[innode_4] 0
loadshed[innode_5] 0
loadshed[innode_6] 0
loadshed[innode_7] 0
loadshed[innode_8] 0
loadshed[source_1] -2.1145509397291895e-01
loadshed[source_2] -4.1462615069582487e-02
loadshed[source_3] 0.33212578832367
loadshed[sink_1] 0
loadshed[sink_2] 0
loadshed[sink_3] 0
loadshed[sink_4] 0
loadshed[sink_5] 0
loadshed[sink_6] 0
loadshed[sink_7] 0
loadshed[sink_8] 0
loadshed[sink_9] 0
loadshed[sink_10] 0
loadshed[sink_11] 0
loadshed[sink_12] 0.765678099718372
loadshed[sink_13] 0
loadshed[sink_14] 0
loadshed[sink_15] 0
loadshed[sink_16] 0
loadshed[sink_17] 0
loadshed[sink_18] 0
loadshed[sink_19] 0
loadshed[sink_20] 0
loadshed[sink_21] 0
loadshed[sink_22] 0
loadshed[sink_23] 0
loadshed[sink_24] 0
loadshed[sink_25] 0
loadshed[sink_26] 0
loadshed[sink_27] 0
loadshed[sink_28] 0
loadshed[sink_29] 0
flow[source_1,sink_3] 1.9151927232148262e+02
flow[innode_1,sink_16] 1.6354166666666970e+01
flow[innode_6,sink_13] 8.8947470221421554e+00
flow[sink_13,sink_14] -7.4594196445245124e+00
flow[sink_14,sink_10] -2.3813586311191330e+01
flow[sink_25,sink_26] 1.6737380607752357e+02
flow[sink_26,sink_9] 1.5101963941085666e+02
flow[sink_9,sink_18] 134.66547274419
flow[sink_26,sink_4] 0
flow[sink_4,sink_20] -2.4101103691780089e+01
flow[sink_18,sink_6] 1.1831130607752334e+02
flow[sink_25,innode_8] -1.5881093898814626e+02
flow[sink_6,sink_7] 6.9248806077522659e+01
flow[sink_6,sink_22] 3.2708333333333641e+01
flow[sink_7,sink_24] 3.6540472744189131e+01
flow[sink_22,sink_1] 1.6354166666666970e+01
flow[sink_24,sink_21] 2.0186306077522460e+01
flow[sink_21,sink_12] 3.8321394108557922e+00
flow[sink_7,sink_5] 1.6354166666667368e+01
flow[sink_5,sink_17] 0
flow[sink_17,sink_4] -7.7469370251134215e+00
flow[sink_17,sink_8] -8.6072296415532463e+00
flow[sink_3,sink_23] 16.3541666666697
flow[sink_8,sink_20] -2.4961396308219914e+01
flow[sink_25,sink_20] 6.5416666666666671e+01
flow[sink_25,sink_15] -9.9228447444853586e+01
flow[sink_15,sink_29] -64.2473504510032
flow[sink_29,sink_28] 1.6354166666667879e+01
flow[sink_29,sink_2] 6.7689430327183814e+01
flow[sink_2,sink_15] 5.1335263660517143e+01
flow[sink_29,innode_7] -1.6464511411152114e+02
flow[innode_4,sink_19] 4.0363986187314921e+01
flow[sink_19,innode_3] 7.2876086311191571e+01
flow[innode_4,innode_5] 6.5220433457210433e+01
flow[sink_27,innode_5] -6.5220433457210433e+01
flow[sink_27,sink_19] 4.8866266790543769e+01
flow[sink_10,sink_11] 3.2708333333333641e+01
flow[sink_10,innode_2] 0
flow[sink_10,innode_3] -7.2876086311191571e+01
flow[innode_6,sink_25] -8.8947470221421554e+00
flow[sink_11,innode_1] 1.6354166666666970e+01
flow[sink_19,innode_2] 0
flow[source_3,innode_4] 1.0558441964452535e+02
flow[source_2,innode_7] 1.6464511411152114e+02
flow[sink_3,innode_8] 1.5881093898814626e+02
pressure[innode_1] 7.5184997449589133e+01
pressure[innode_2] 7.5336698757192678e+01
pressure[innode_3] 79.2166262307143
pressure[innode_4] 81.01325
pressure[innode_5] 8.0968387946784020e+01
pressure[innode_6] 74.2460355494521
pressure[innode_7] 81.01325
pressure[innode_8] 8.0373074235643173e+01
pressure[source_1] 81.01325
pressure[source_2] 81.01325
pressure[source_3] 81.01325
pressure[sink_1] 4.3286141573167733e+01
pressure[sink_2] 7.4894988531667167e+01
pressure[sink_3] 8.0373074235643173e+01
pressure[sink_4] 5.6882733205944035e+01
pressure[sink_5] 3.7635028113387008e+01
pressure[sink_6] 45.3872191835551
pressure[sink_7] 4.4436598140281724e+01
pressure[sink_8] 5.6911443952987966e+01
pressure[sink_9] 5.3419081490897774e+01
pressure[sink_10] 7.5336698757192678e+01
pressure[sink_11] 7.5184997449589133e+01
pressure[sink_12] 1.01325
pressure[sink_13] 7.4197000295569353e+01
pressure[sink_14] 7.4210349562425279e+01
pressure[sink_15] 7.4727390209925446e+01
pressure[sink_16] 7.4163347614771453e+01
pressure[sink_17] 5.6586670817579417e+01
pressure[sink_18] 4.8546483314875893e+01
pressure[sink_19] 7.9378002071528883e+01
pressure[sink_20] 5.8650902236789037e+01
pressure[sink_21] 2.3769349361894054e+00
pressure[sink_22] 4.4349910715522739e+01
pressure[sink_23] 8.0208356223983387e+01
pressure[sink_24] 2.6004795206828182e+00
pressure[sink_25] 74.2460355494521
pressure[sink_26] 62.4579966805975
pressure[sink_27] 8.0427178863492017e+01
pressure[sink_28] 7.6314355920393126e+01
pressure[sink_29] 76.6096381940103
interdiction[source_1,sink_3] 0
interdiction[innode_1,sink_16] 0
interdiction[innode_6,sink_13] 0
interdiction[sink_13,sink_14] 0
interdiction[sink_14,sink_10] 0
interdiction[sink_25,sink_26] 0
interdiction[sink_26,sink_9] 0
interdiction[sink_9,sink_18] 0
interdiction[sink_26,sink_4] 1
interdiction[sink_4,sink_20] 0
interdiction[sink_18,sink_6] 0
interdiction[sink_25,innode_8] 0
interdiction[sink_6,sink_7] 0
interdiction[sink_6,sink_22] 0
interdiction[sink_7,sink_24] 0
interdiction[sink_22,sink_1] 0
interdiction[sink_24,sink_21] 0
interdiction[sink_21,sink_12] 0
interdiction[sink_7,sink_5] 0
interdiction[sink_5,sink_17] 1
interdiction[sink_17,sink_4] 0
interdiction[sink_17,sink_8] 0
interdiction[sink_3,sink_23] 0
interdiction[sink_8,sink_20] 0
interdiction[sink_25,sink_20] 0
interdiction[sink_25,sink_15] 0
interdiction[sink_15,sink_29] 0
interdiction[sink_29,sink_28] 0
interdiction[sink_29,sink_2] 0
interdiction[sink_2,sink_15] 0
interdiction[sink_29,innode_7] 0
interdiction[innode_4,sink_19] 0
interdiction[sink_19,innode_3] 0
interdiction[innode_4,innode_5] 0
interdiction[sink_27,innode_5] 0
interdiction[sink_27,sink_19] 0
interdiction[sink_10,sink_11] 0
interdiction[sink_10,innode_2] 0
interdiction[sink_10,innode_3] 0
interdiction[innode_6,sink_25] 0
interdiction[sink_11,innode_1] 0
interdiction[sink_19,innode_2] 1
interdiction[source_3,innode_4] 0
interdiction[source_2,innode_7] 0
interdiction[sink_3,innode_8] 0
WCcheckFlow[source_1,sink_3] 39
WCcheckFlow[innode_1,sink_16] 1
WCcheckFlow[innode_6,sink_13] 13
WCcheckFlow[sink_13,sink_14] 12
WCcheckFlow[sink_14,sink_10] 11
WCcheckFlow[sink_25,sink_26] 11
WCcheckFlow[sink_26,sink_9] 10
WCcheckFlow[sink_9,sink_18] 9
WCcheckFlow[sink_26,sink_4] 0
WCcheckFlow[sink_4,sink_20] -3
WCcheckFlow[sink_18,sink_6] 8
WCcheckFlow[sink_25,innode_8] -36
WCcheckFlow[sink_6,sink_7] 5
WCcheckFlow[sink_6,sink_22] 2
WCcheckFlow[sink_7,sink_24] 3
WCcheckFlow[sink_22,sink_1] 1
WCcheckFlow[sink_24,sink_21] 2
WCcheckFlow[sink_21,sink_12] 1
WCcheckFlow[sink_7,sink_5] 1
WCcheckFlow[sink_5,sink_17] 0
WCcheckFlow[sink_17,sink_4] -2
WCcheckFlow[sink_17,sink_8] 1
WCcheckFlow[sink_3,sink_23] 1
WCcheckFlow[sink_8,sink_20] 0
WCcheckFlow[sink_25,sink_20] 4
WCcheckFlow[sink_25,sink_15] 6
WCcheckFlow[sink_15,sink_29] 5
WCcheckFlow[sink_29,sink_28] 1
WCcheckFlow[sink_29,sink_2] 1
WCcheckFlow[sink_2,sink_15] 0
WCcheckFlow[sink_29,innode_7] 2
WCcheckFlow[innode_4,sink_19] -4
WCcheckFlow[sink_19,innode_3] -5
WCcheckFlow[innode_4,innode_5] 2
WCcheckFlow[sink_27,innode_5] -1
WCcheckFlow[sink_27,sink_19] 0
WCcheckFlow[sink_10,sink_11] 3
WCcheckFlow[sink_10,innode_2] 1
WCcheckFlow[sink_10,innode_3] 6
WCcheckFlow[innode_6,sink_25] -14
WCcheckFlow[sink_11,innode_1] 2
WCcheckFlow[sink_19,innode_2] 0
WCcheckFlow[source_3,innode_4] -1
WCcheckFlow[source_2,innode_7] -1
WCcheckFlow[sink_3,innode_8] 37
